120
150
51
51
48
58
42
60
45
59
43
50
55
49
48
59
45
59
46
46
55
51
46
52
54
45
48
52
50
46
46
58
45
41
53
57
52
58
44
48
51
51
59
48
43
40
52
44
54
46
59
57
42
51
49
45
56
45
40
45
45
60
59
48
44
54
52
43
51
56
60
40
50
51
59
59
48
56
51
51
48
51
43
51
59
43
59
46
50
42
58
59
45
46
52
54
45
44
43
52
51
47
40
55
49
55
49
45
52
46
52
46
53
46
51
40
47
53
51
49
50
50
